NAME : amz2283.132091_91591.tour
COMMENT : Cost = 132091_91591
COMMENT : Found by LKH-AMZ [Keld Helsgaun] Sun May 11 15:10:51 2025
COMMENT : TW viol.: 0 #: 0
TYPE : TOUR
DIMENSION : 133
TOUR_SECTION
126
38
75
88
59
87
130
114
58
12
80
78
44
92
9
36
128
96
56
3
102
69
15
43
107
11
39
70
104
45
47
67
30
29
94
1
79
40
14
77
86
117
51
23
31
41
97
71
91
20
32
111
4
98
72
100
93
13
62
122
108
127
115
37
34
131
123
21
76
55
118
2
89
82
112
121
129
66
84
48
124
49
73
24
46
8
5
17
27
113
50
26
85
133
25
101
106
132
52
109
33
95
22
116
60
110
28
90
120
6
54
61
74
99
119
53
16
65
18
35
10
42
105
68
57
19
125
63
64
83
7
81
103
-1
EOF
